(set-info :source |printed by MathSAT|)
(declare-fun .x.14 () Int)
(declare-fun .x.15 () Int)
(declare-fun main@%.0.i_0_0 () Int)
(declare-fun .x.16 () Int)
(declare-fun main@%_2_0_0 () Int)
(declare-fun main@%_2_1 () Int)
(declare-fun main@%assume.flag.0_0_0 () Bool)
(declare-fun .x.17 () Bool)
(declare-fun main@%_5_0_0 () Int)
(declare-fun main@%_5_1 () Int)
(declare-fun main@%shadow.mem.7_0_0 () (Array Int Int))
(declare-fun .x.18 () (Array Int Int))
(declare-fun main@%_4_0_0 () Bool)
(declare-fun main@%_4_1 () Bool)
(declare-fun main@%.6.i1_0_0 () Int)
(declare-fun .x.19 () Int)
(declare-fun main@%shadow.mem.6_0_0 () (Array Int Int))
(declare-fun .x.20 () (Array Int Int))
(declare-fun main@%_3_0_0 () Bool)
(declare-fun main@%_3_1 () Bool)
(declare-fun main@%.5.i2_0_0 () Int)
(declare-fun .x.21 () Int)
(declare-fun main@%shadow.mem.5_0_0 () (Array Int Int))
(declare-fun .x.22 () (Array Int Int))
(declare-fun main@%.4.i6_0_0 () Int)
(declare-fun .x.23 () Int)
(declare-fun main@%shadow.mem.4_0_0 () (Array Int Int))
(declare-fun .x.24 () (Array Int Int))
(declare-fun main@%.3.i10_0_0 () Int)
(declare-fun .x.25 () Int)
(declare-fun main@%shadow.mem.3_0_0 () (Array Int Int))
(declare-fun .x.26 () (Array Int Int))
(declare-fun main@%.2.i14_0_0 () Int)
(declare-fun .x.27 () Int)
(declare-fun main@%shadow.mem.2_0_0 () (Array Int Int))
(declare-fun .x.28 () (Array Int Int))
(declare-fun main@%.1.i18_0_0 () Int)
(declare-fun .x.29 () Int)
(declare-fun main@%shadow.mem.1_0_0 () (Array Int Int))
(declare-fun .x.30 () (Array Int Int))
(declare-fun main@%.01.i22_0_0 () Int)
(declare-fun main@%.01.i22_2 () Int)
(declare-fun main@%shadow.mem.0_0_0 () (Array Int Int))
(declare-fun main@%shadow.mem.0_2 () (Array Int Int))
(declare-fun @nd_0_0 () Int)
(declare-fun .x.31 () Int)
(define-fun .def_8 () Int (! .x.14 :next |.x.15|))
(define-fun .def_10 () Int (! main@%.0.i_0_0 :next |.x.16|))
(define-fun .def_12 () Int (! main@%_2_0_0 :next |main@%_2_1|))
(define-fun .def_14 () Bool (! main@%assume.flag.0_0_0 :next |.x.17|))
(define-fun .def_16 () Int (! main@%_5_0_0 :next |main@%_5_1|))
(define-fun .def_18 () (Array Int Int) (! main@%shadow.mem.7_0_0 :next |.x.18|))
(define-fun .def_20 () Bool (! main@%_4_0_0 :next |main@%_4_1|))
(define-fun .def_22 () Int (! main@%.6.i1_0_0 :next |.x.19|))
(define-fun .def_24 () (Array Int Int) (! main@%shadow.mem.6_0_0 :next |.x.20|))
(define-fun .def_26 () Bool (! main@%_3_0_0 :next |main@%_3_1|))
(define-fun .def_28 () Int (! main@%.5.i2_0_0 :next |.x.21|))
(define-fun .def_30 () (Array Int Int) (! main@%shadow.mem.5_0_0 :next |.x.22|))
(define-fun .def_32 () Int (! main@%.4.i6_0_0 :next |.x.23|))
(define-fun .def_34 () (Array Int Int) (! main@%shadow.mem.4_0_0 :next |.x.24|))
(define-fun .def_36 () Int (! main@%.3.i10_0_0 :next |.x.25|))
(define-fun .def_38 () (Array Int Int) (! main@%shadow.mem.3_0_0 :next |.x.26|))
(define-fun .def_40 () Int (! main@%.2.i14_0_0 :next |.x.27|))
(define-fun .def_42 () (Array Int Int) (! main@%shadow.mem.2_0_0 :next |.x.28|))
(define-fun .def_44 () Int (! main@%.1.i18_0_0 :next |.x.29|))
(define-fun .def_46 () (Array Int Int) (! main@%shadow.mem.1_0_0 :next |.x.30|))
(define-fun .def_48 () Int (! main@%.01.i22_0_0 :next |main@%.01.i22_2|))
(define-fun .def_50 () (Array Int Int) (! main@%shadow.mem.0_0_0 :next |main@%shadow.mem.0_2|))
(define-fun .def_52 () Int (! @nd_0_0 :next |.x.31|))
(define-fun .def_678 () Bool (! (= .def_8 0) :init true))
(define-fun .def_709 () Bool (= .def_52 .x.31))
(define-fun .def_675 () Bool (<= main@%_5_1 0))
(define-fun .def_676 () Bool (not .def_675))
(define-fun .def_671 () Bool (<= main@%_2_1 0))
(define-fun .def_672 () Bool (not .def_671))
(define-fun .def_673 () Bool (= main@%_3_1 .def_672))
(define-fun .def_670 () Bool (= main@%_4_1 main@%_3_1))
(define-fun .def_674 () Bool (and .def_670 .def_673))
(define-fun .def_677 () Bool (and .def_674 .def_676))
(define-fun .def_679 () Bool (and .def_677 .def_678))
(define-fun .def_667 () Bool (= main@%.01.i22_2 0))
(define-fun .def_636 () Bool (= .x.15 1))
(define-fun .def_663 () Bool (and main@%_3_1 .def_636))
(define-fun .def_54 () Bool (= .def_10 .x.16))
(define-fun .def_664 () Bool (and .def_54 .def_663))
(define-fun .def_56 () Bool (= .def_14 .x.17))
(define-fun .def_665 () Bool (and .def_56 .def_664))
(define-fun .def_58 () Bool (= .def_18 .x.18))
(define-fun .def_666 () Bool (and .def_58 .def_665))
(define-fun .def_668 () Bool (and .def_666 .def_667))
(define-fun .def_657 () Bool (= .x.17 main@%_4_1))
(define-fun .def_166 () Bool (= .x.16 0))
(define-fun .def_658 () Bool (and .def_166 .def_657))
(define-fun .def_656 () Bool (not main@%_3_1))
(define-fun .def_659 () Bool (and .def_656 .def_658))
(define-fun .def_131 () Bool (= .x.15 8))
(define-fun .def_660 () Bool (and .def_131 .def_659))
(define-fun .def_84 () Bool (= .def_48 main@%.01.i22_2))
(define-fun .def_661 () Bool (and .def_84 .def_660))
(define-fun .def_86 () Bool (= .def_50 main@%shadow.mem.0_2))
(define-fun .def_662 () Bool (and .def_86 .def_661))
(define-fun .def_669 () Bool (or .def_662 .def_668))
(define-fun .def_680 () Bool (and .def_669 .def_679))
(define-fun .def_599 () Int (* (- 1) .def_48))
(define-fun .def_600 () Int (+ .def_12 .def_599))
(define-fun .def_601 () Bool (<= .def_600 1))
(define-fun .def_647 () Bool (not .def_601))
(define-fun .def_643 () Int (* (- 1) main@%.01.i22_2))
(define-fun .def_644 () Int (+ .def_48 .def_643))
(define-fun .def_645 () Bool (= .def_644 (- 1)))
(define-fun .def_604 () Int (+ .def_16 .def_48))
(define-fun .def_617 () (Array Int Int) (store .def_50 .def_604 42))
(define-fun .def_640 () Bool (= main@%shadow.mem.0_2 .def_617))
(define-fun .def_637 () Bool (and .def_54 .def_636))
(define-fun .def_638 () Bool (and .def_56 .def_637))
(define-fun .def_639 () Bool (and .def_58 .def_638))
(define-fun .def_641 () Bool (and .def_639 .def_640))
(define-fun .def_646 () Bool (and .def_641 .def_645))
(define-fun .def_648 () Bool (and .def_646 .def_647))
(define-fun .def_89 () Bool (<= .def_16 0))
(define-fun .def_90 () Bool (not .def_89))
(define-fun .def_649 () Bool (and .def_90 .def_648))
(define-fun .def_605 () Bool (<= .def_604 0))
(define-fun .def_606 () Bool (not .def_605))
(define-fun .def_607 () Bool (or .def_89 .def_606))
(define-fun .def_650 () Bool (and .def_607 .def_649))
(define-fun .def_609 () Bool (= .def_8 1))
(define-fun .def_651 () Bool (and .def_609 .def_650))
(define-fun .def_92 () Bool (= .def_12 main@%_2_1))
(define-fun .def_652 () Bool (and .def_92 .def_651))
(define-fun .def_94 () Bool (= .def_16 main@%_5_1))
(define-fun .def_653 () Bool (and .def_94 .def_652))
(define-fun .def_96 () Bool (= .def_20 main@%_4_1))
(define-fun .def_654 () Bool (and .def_96 .def_653))
(define-fun .def_98 () Bool (= .def_26 main@%_3_1))
(define-fun .def_655 () Bool (and .def_98 .def_654))
(define-fun .def_681 () Bool (or .def_655 .def_680))
(define-fun .def_82 () Bool (= .def_46 .x.30))
(define-fun .def_80 () Bool (= .def_44 .x.29))
(define-fun .def_594 () Bool (and .def_80 .def_82))
(define-fun .def_682 () Bool (and .def_594 .def_681))
(define-fun .def_633 () Bool (= .x.29 0))
(define-fun .def_631 () Bool (= .x.30 .def_617))
(define-fun .def_239 () Bool (and .def_26 .def_54))
(define-fun .def_240 () Bool (and .def_56 .def_239))
(define-fun .def_241 () Bool (and .def_58 .def_240))
(define-fun .def_621 () Bool (and .def_84 .def_241))
(define-fun .def_622 () Bool (and .def_86 .def_621))
(define-fun .def_623 () Bool (and .def_601 .def_622))
(define-fun .def_624 () Bool (and .def_90 .def_623))
(define-fun .def_625 () Bool (and .def_607 .def_624))
(define-fun .def_626 () Bool (and .def_609 .def_625))
(define-fun .def_627 () Bool (and .def_92 .def_626))
(define-fun .def_628 () Bool (and .def_94 .def_627))
(define-fun .def_629 () Bool (and .def_96 .def_628))
(define-fun .def_630 () Bool (and .def_98 .def_629))
(define-fun .def_632 () Bool (and .def_630 .def_631))
(define-fun .def_634 () Bool (and .def_632 .def_633))
(define-fun .def_582 () Bool (= .x.15 2))
(define-fun .def_635 () Bool (and .def_582 .def_634))
(define-fun .def_683 () Bool (or .def_635 .def_682))
(define-fun .def_618 () Bool (= .x.18 .def_617))
(define-fun .def_595 () Bool (and .def_166 .def_594))
(define-fun .def_596 () Bool (and .def_131 .def_595))
(define-fun .def_597 () Bool (and .def_84 .def_596))
(define-fun .def_598 () Bool (and .def_86 .def_597))
(define-fun .def_602 () Bool (and .def_598 .def_601))
(define-fun .def_603 () Bool (and .def_90 .def_602))
(define-fun .def_608 () Bool (and .def_603 .def_607))
(define-fun .def_610 () Bool (and .def_608 .def_609))
(define-fun .def_611 () Bool (and .def_92 .def_610))
(define-fun .def_612 () Bool (and .def_94 .def_611))
(define-fun .def_613 () Bool (and .def_96 .def_612))
(define-fun .def_614 () Bool (and .def_98 .def_613))
(define-fun .def_176 () Bool (= .x.17 .def_20))
(define-fun .def_615 () Bool (and .def_176 .def_614))
(define-fun .def_619 () Bool (and .def_615 .def_618))
(define-fun .def_221 () Bool (not .def_26))
(define-fun .def_620 () Bool (and .def_221 .def_619))
(define-fun .def_684 () Bool (or .def_620 .def_683))
(define-fun .def_542 () Int (* (- 1) .def_44))
(define-fun .def_543 () Int (+ .def_12 .def_542))
(define-fun .def_544 () Bool (<= .def_543 1))
(define-fun .def_590 () Bool (not .def_544))
(define-fun .def_586 () Int (* (- 1) .x.29))
(define-fun .def_587 () Int (+ .def_44 .def_586))
(define-fun .def_588 () Bool (= .def_587 (- 1)))
(define-fun .def_546 () Int (+ .def_16 .def_44))
(define-fun .def_555 () (Array Int Int) (store .def_46 .def_546 43))
(define-fun .def_584 () Bool (= .x.30 .def_555))
(define-fun .def_190 () Bool (and .def_54 .def_56))
(define-fun .def_191 () Bool (and .def_58 .def_190))
(define-fun .def_575 () Bool (and .def_84 .def_191))
(define-fun .def_576 () Bool (and .def_86 .def_575))
(define-fun .def_577 () Bool (and .def_90 .def_576))
(define-fun .def_578 () Bool (and .def_92 .def_577))
(define-fun .def_579 () Bool (and .def_94 .def_578))
(define-fun .def_580 () Bool (and .def_96 .def_579))
(define-fun .def_581 () Bool (and .def_98 .def_580))
(define-fun .def_583 () Bool (and .def_581 .def_582))
(define-fun .def_585 () Bool (and .def_583 .def_584))
(define-fun .def_589 () Bool (and .def_585 .def_588))
(define-fun .def_591 () Bool (and .def_589 .def_590))
(define-fun .def_547 () Bool (<= .def_546 0))
(define-fun .def_548 () Bool (not .def_547))
(define-fun .def_549 () Bool (or .def_89 .def_548))
(define-fun .def_592 () Bool (and .def_549 .def_591))
(define-fun .def_552 () Bool (= .def_8 2))
(define-fun .def_593 () Bool (and .def_552 .def_592))
(define-fun .def_685 () Bool (or .def_593 .def_684))
(define-fun .def_78 () Bool (= .def_42 .x.28))
(define-fun .def_76 () Bool (= .def_40 .x.27))
(define-fun .def_528 () Bool (and .def_76 .def_78))
(define-fun .def_686 () Bool (and .def_528 .def_685))
(define-fun .def_572 () Bool (= .x.27 0))
(define-fun .def_570 () Bool (= .x.28 .def_555))
(define-fun .def_558 () Bool (and .def_80 .def_241))
(define-fun .def_559 () Bool (and .def_82 .def_558))
(define-fun .def_560 () Bool (and .def_84 .def_559))
(define-fun .def_561 () Bool (and .def_86 .def_560))
(define-fun .def_562 () Bool (and .def_90 .def_561))
(define-fun .def_563 () Bool (and .def_92 .def_562))
(define-fun .def_564 () Bool (and .def_94 .def_563))
(define-fun .def_565 () Bool (and .def_96 .def_564))
(define-fun .def_566 () Bool (and .def_98 .def_565))
(define-fun .def_567 () Bool (and .def_544 .def_566))
(define-fun .def_568 () Bool (and .def_549 .def_567))
(define-fun .def_569 () Bool (and .def_552 .def_568))
(define-fun .def_571 () Bool (and .def_569 .def_570))
(define-fun .def_573 () Bool (and .def_571 .def_572))
(define-fun .def_516 () Bool (= .x.15 3))
(define-fun .def_574 () Bool (and .def_516 .def_573))
(define-fun .def_687 () Bool (or .def_574 .def_686))
(define-fun .def_556 () Bool (= .x.18 .def_555))
(define-fun .def_529 () Bool (and .def_80 .def_528))
(define-fun .def_530 () Bool (and .def_82 .def_529))
(define-fun .def_531 () Bool (and .def_166 .def_530))
(define-fun .def_532 () Bool (and .def_131 .def_531))
(define-fun .def_533 () Bool (and .def_84 .def_532))
(define-fun .def_534 () Bool (and .def_86 .def_533))
(define-fun .def_535 () Bool (and .def_90 .def_534))
(define-fun .def_536 () Bool (and .def_92 .def_535))
(define-fun .def_537 () Bool (and .def_94 .def_536))
(define-fun .def_538 () Bool (and .def_96 .def_537))
(define-fun .def_539 () Bool (and .def_98 .def_538))
(define-fun .def_540 () Bool (and .def_176 .def_539))
(define-fun .def_541 () Bool (and .def_221 .def_540))
(define-fun .def_545 () Bool (and .def_541 .def_544))
(define-fun .def_550 () Bool (and .def_545 .def_549))
(define-fun .def_553 () Bool (and .def_550 .def_552))
(define-fun .def_557 () Bool (and .def_553 .def_556))
(define-fun .def_688 () Bool (or .def_557 .def_687))
(define-fun .def_472 () Int (* (- 1) .def_40))
(define-fun .def_473 () Int (+ .def_12 .def_472))
(define-fun .def_474 () Bool (<= .def_473 1))
(define-fun .def_524 () Bool (not .def_474))
(define-fun .def_520 () Int (* (- 1) .x.27))
(define-fun .def_521 () Int (+ .def_40 .def_520))
(define-fun .def_522 () Bool (= .def_521 (- 1)))
(define-fun .def_476 () Int (+ .def_16 .def_40))
(define-fun .def_485 () (Array Int Int) (store .def_42 .def_476 44))
(define-fun .def_518 () Bool (= .x.28 .def_485))
(define-fun .def_507 () Bool (and .def_80 .def_191))
(define-fun .def_508 () Bool (and .def_82 .def_507))
(define-fun .def_509 () Bool (and .def_84 .def_508))
(define-fun .def_510 () Bool (and .def_86 .def_509))
(define-fun .def_511 () Bool (and .def_90 .def_510))
(define-fun .def_512 () Bool (and .def_92 .def_511))
(define-fun .def_513 () Bool (and .def_94 .def_512))
(define-fun .def_514 () Bool (and .def_96 .def_513))
(define-fun .def_515 () Bool (and .def_98 .def_514))
(define-fun .def_517 () Bool (and .def_515 .def_516))
(define-fun .def_519 () Bool (and .def_517 .def_518))
(define-fun .def_523 () Bool (and .def_519 .def_522))
(define-fun .def_525 () Bool (and .def_523 .def_524))
(define-fun .def_477 () Bool (<= .def_476 0))
(define-fun .def_478 () Bool (not .def_477))
(define-fun .def_479 () Bool (or .def_89 .def_478))
(define-fun .def_526 () Bool (and .def_479 .def_525))
(define-fun .def_482 () Bool (= .def_8 3))
(define-fun .def_527 () Bool (and .def_482 .def_526))
(define-fun .def_689 () Bool (or .def_527 .def_688))
(define-fun .def_74 () Bool (= .def_38 .x.26))
(define-fun .def_72 () Bool (= .def_36 .x.25))
(define-fun .def_456 () Bool (and .def_72 .def_74))
(define-fun .def_690 () Bool (and .def_456 .def_689))
(define-fun .def_504 () Bool (= .x.25 0))
(define-fun .def_502 () Bool (= .x.26 .def_485))
(define-fun .def_488 () Bool (and .def_76 .def_241))
(define-fun .def_489 () Bool (and .def_78 .def_488))
(define-fun .def_490 () Bool (and .def_80 .def_489))
(define-fun .def_491 () Bool (and .def_82 .def_490))
(define-fun .def_492 () Bool (and .def_84 .def_491))
(define-fun .def_493 () Bool (and .def_86 .def_492))
(define-fun .def_494 () Bool (and .def_90 .def_493))
(define-fun .def_495 () Bool (and .def_92 .def_494))
(define-fun .def_496 () Bool (and .def_94 .def_495))
(define-fun .def_497 () Bool (and .def_96 .def_496))
(define-fun .def_498 () Bool (and .def_98 .def_497))
(define-fun .def_499 () Bool (and .def_474 .def_498))
(define-fun .def_500 () Bool (and .def_479 .def_499))
(define-fun .def_501 () Bool (and .def_482 .def_500))
(define-fun .def_503 () Bool (and .def_501 .def_502))
(define-fun .def_505 () Bool (and .def_503 .def_504))
(define-fun .def_444 () Bool (= .x.15 4))
(define-fun .def_506 () Bool (and .def_444 .def_505))
(define-fun .def_691 () Bool (or .def_506 .def_690))
(define-fun .def_486 () Bool (= .x.18 .def_485))
(define-fun .def_457 () Bool (and .def_76 .def_456))
(define-fun .def_458 () Bool (and .def_78 .def_457))
(define-fun .def_459 () Bool (and .def_80 .def_458))
(define-fun .def_460 () Bool (and .def_82 .def_459))
(define-fun .def_461 () Bool (and .def_166 .def_460))
(define-fun .def_462 () Bool (and .def_131 .def_461))
(define-fun .def_463 () Bool (and .def_84 .def_462))
(define-fun .def_464 () Bool (and .def_86 .def_463))
(define-fun .def_465 () Bool (and .def_90 .def_464))
(define-fun .def_466 () Bool (and .def_92 .def_465))
(define-fun .def_467 () Bool (and .def_94 .def_466))
(define-fun .def_468 () Bool (and .def_96 .def_467))
(define-fun .def_469 () Bool (and .def_98 .def_468))
(define-fun .def_470 () Bool (and .def_176 .def_469))
(define-fun .def_471 () Bool (and .def_221 .def_470))
(define-fun .def_475 () Bool (and .def_471 .def_474))
(define-fun .def_480 () Bool (and .def_475 .def_479))
(define-fun .def_483 () Bool (and .def_480 .def_482))
(define-fun .def_487 () Bool (and .def_483 .def_486))
(define-fun .def_692 () Bool (or .def_487 .def_691))
(define-fun .def_396 () Int (* (- 1) .def_36))
(define-fun .def_397 () Int (+ .def_12 .def_396))
(define-fun .def_398 () Bool (<= .def_397 1))
(define-fun .def_452 () Bool (not .def_398))
(define-fun .def_448 () Int (* (- 1) .x.25))
(define-fun .def_449 () Int (+ .def_36 .def_448))
(define-fun .def_450 () Bool (= .def_449 (- 1)))
(define-fun .def_400 () Int (+ .def_16 .def_36))
(define-fun .def_409 () (Array Int Int) (store .def_38 .def_400 45))
(define-fun .def_446 () Bool (= .x.26 .def_409))
(define-fun .def_433 () Bool (and .def_76 .def_191))
(define-fun .def_434 () Bool (and .def_78 .def_433))
(define-fun .def_435 () Bool (and .def_80 .def_434))
(define-fun .def_436 () Bool (and .def_82 .def_435))
(define-fun .def_437 () Bool (and .def_84 .def_436))
(define-fun .def_438 () Bool (and .def_86 .def_437))
(define-fun .def_439 () Bool (and .def_90 .def_438))
(define-fun .def_440 () Bool (and .def_92 .def_439))
(define-fun .def_441 () Bool (and .def_94 .def_440))
(define-fun .def_442 () Bool (and .def_96 .def_441))
(define-fun .def_443 () Bool (and .def_98 .def_442))
(define-fun .def_445 () Bool (and .def_443 .def_444))
(define-fun .def_447 () Bool (and .def_445 .def_446))
(define-fun .def_451 () Bool (and .def_447 .def_450))
(define-fun .def_453 () Bool (and .def_451 .def_452))
(define-fun .def_401 () Bool (<= .def_400 0))
(define-fun .def_402 () Bool (not .def_401))
(define-fun .def_403 () Bool (or .def_89 .def_402))
(define-fun .def_454 () Bool (and .def_403 .def_453))
(define-fun .def_406 () Bool (= .def_8 4))
(define-fun .def_455 () Bool (and .def_406 .def_454))
(define-fun .def_693 () Bool (or .def_455 .def_692))
(define-fun .def_70 () Bool (= .def_34 .x.24))
(define-fun .def_68 () Bool (= .def_32 .x.23))
(define-fun .def_378 () Bool (and .def_68 .def_70))
(define-fun .def_694 () Bool (and .def_378 .def_693))
(define-fun .def_430 () Bool (= .x.23 0))
(define-fun .def_428 () Bool (= .x.24 .def_409))
(define-fun .def_412 () Bool (and .def_72 .def_241))
(define-fun .def_413 () Bool (and .def_74 .def_412))
(define-fun .def_414 () Bool (and .def_76 .def_413))
(define-fun .def_415 () Bool (and .def_78 .def_414))
(define-fun .def_416 () Bool (and .def_80 .def_415))
(define-fun .def_417 () Bool (and .def_82 .def_416))
(define-fun .def_418 () Bool (and .def_84 .def_417))
(define-fun .def_419 () Bool (and .def_86 .def_418))
(define-fun .def_420 () Bool (and .def_90 .def_419))
(define-fun .def_421 () Bool (and .def_92 .def_420))
(define-fun .def_422 () Bool (and .def_94 .def_421))
(define-fun .def_423 () Bool (and .def_96 .def_422))
(define-fun .def_424 () Bool (and .def_98 .def_423))
(define-fun .def_425 () Bool (and .def_398 .def_424))
(define-fun .def_426 () Bool (and .def_403 .def_425))
(define-fun .def_427 () Bool (and .def_406 .def_426))
(define-fun .def_429 () Bool (and .def_427 .def_428))
(define-fun .def_431 () Bool (and .def_429 .def_430))
(define-fun .def_366 () Bool (= .x.15 5))
(define-fun .def_432 () Bool (and .def_366 .def_431))
(define-fun .def_695 () Bool (or .def_432 .def_694))
(define-fun .def_410 () Bool (= .x.18 .def_409))
(define-fun .def_379 () Bool (and .def_72 .def_378))
(define-fun .def_380 () Bool (and .def_74 .def_379))
(define-fun .def_381 () Bool (and .def_76 .def_380))
(define-fun .def_382 () Bool (and .def_78 .def_381))
(define-fun .def_383 () Bool (and .def_80 .def_382))
(define-fun .def_384 () Bool (and .def_82 .def_383))
(define-fun .def_385 () Bool (and .def_166 .def_384))
(define-fun .def_386 () Bool (and .def_131 .def_385))
(define-fun .def_387 () Bool (and .def_84 .def_386))
(define-fun .def_388 () Bool (and .def_86 .def_387))
(define-fun .def_389 () Bool (and .def_90 .def_388))
(define-fun .def_390 () Bool (and .def_92 .def_389))
(define-fun .def_391 () Bool (and .def_94 .def_390))
(define-fun .def_392 () Bool (and .def_96 .def_391))
(define-fun .def_393 () Bool (and .def_98 .def_392))
(define-fun .def_394 () Bool (and .def_176 .def_393))
(define-fun .def_395 () Bool (and .def_221 .def_394))
(define-fun .def_399 () Bool (and .def_395 .def_398))
(define-fun .def_404 () Bool (and .def_399 .def_403))
(define-fun .def_407 () Bool (and .def_404 .def_406))
(define-fun .def_411 () Bool (and .def_407 .def_410))
(define-fun .def_696 () Bool (or .def_411 .def_695))
(define-fun .def_314 () Int (* (- 1) .def_32))
(define-fun .def_315 () Int (+ .def_12 .def_314))
(define-fun .def_316 () Bool (<= .def_315 1))
(define-fun .def_374 () Bool (not .def_316))
(define-fun .def_370 () Int (* (- 1) .x.23))
(define-fun .def_371 () Int (+ .def_32 .def_370))
(define-fun .def_372 () Bool (= .def_371 (- 1)))
(define-fun .def_318 () Int (+ .def_16 .def_32))
(define-fun .def_327 () (Array Int Int) (store .def_34 .def_318 46))
(define-fun .def_368 () Bool (= .x.24 .def_327))
(define-fun .def_353 () Bool (and .def_72 .def_191))
(define-fun .def_354 () Bool (and .def_74 .def_353))
(define-fun .def_355 () Bool (and .def_76 .def_354))
(define-fun .def_356 () Bool (and .def_78 .def_355))
(define-fun .def_357 () Bool (and .def_80 .def_356))
(define-fun .def_358 () Bool (and .def_82 .def_357))
(define-fun .def_359 () Bool (and .def_84 .def_358))
(define-fun .def_360 () Bool (and .def_86 .def_359))
(define-fun .def_361 () Bool (and .def_90 .def_360))
(define-fun .def_362 () Bool (and .def_92 .def_361))
(define-fun .def_363 () Bool (and .def_94 .def_362))
(define-fun .def_364 () Bool (and .def_96 .def_363))
(define-fun .def_365 () Bool (and .def_98 .def_364))
(define-fun .def_367 () Bool (and .def_365 .def_366))
(define-fun .def_369 () Bool (and .def_367 .def_368))
(define-fun .def_373 () Bool (and .def_369 .def_372))
(define-fun .def_375 () Bool (and .def_373 .def_374))
(define-fun .def_319 () Bool (<= .def_318 0))
(define-fun .def_320 () Bool (not .def_319))
(define-fun .def_321 () Bool (or .def_89 .def_320))
(define-fun .def_376 () Bool (and .def_321 .def_375))
(define-fun .def_324 () Bool (= .def_8 5))
(define-fun .def_377 () Bool (and .def_324 .def_376))
(define-fun .def_697 () Bool (or .def_377 .def_696))
(define-fun .def_66 () Bool (= .def_30 .x.22))
(define-fun .def_64 () Bool (= .def_28 .x.21))
(define-fun .def_294 () Bool (and .def_64 .def_66))
(define-fun .def_698 () Bool (and .def_294 .def_697))
(define-fun .def_350 () Bool (= .x.21 0))
(define-fun .def_348 () Bool (= .x.22 .def_327))
(define-fun .def_330 () Bool (and .def_68 .def_241))
(define-fun .def_331 () Bool (and .def_70 .def_330))
(define-fun .def_332 () Bool (and .def_72 .def_331))
(define-fun .def_333 () Bool (and .def_74 .def_332))
(define-fun .def_334 () Bool (and .def_76 .def_333))
(define-fun .def_335 () Bool (and .def_78 .def_334))
(define-fun .def_336 () Bool (and .def_80 .def_335))
(define-fun .def_337 () Bool (and .def_82 .def_336))
(define-fun .def_338 () Bool (and .def_84 .def_337))
(define-fun .def_339 () Bool (and .def_86 .def_338))
(define-fun .def_340 () Bool (and .def_90 .def_339))
(define-fun .def_341 () Bool (and .def_92 .def_340))
(define-fun .def_342 () Bool (and .def_94 .def_341))
(define-fun .def_343 () Bool (and .def_96 .def_342))
(define-fun .def_344 () Bool (and .def_98 .def_343))
(define-fun .def_345 () Bool (and .def_316 .def_344))
(define-fun .def_346 () Bool (and .def_321 .def_345))
(define-fun .def_347 () Bool (and .def_324 .def_346))
(define-fun .def_349 () Bool (and .def_347 .def_348))
(define-fun .def_351 () Bool (and .def_349 .def_350))
(define-fun .def_282 () Bool (= .x.15 6))
(define-fun .def_352 () Bool (and .def_282 .def_351))
(define-fun .def_699 () Bool (or .def_352 .def_698))
(define-fun .def_328 () Bool (= .x.18 .def_327))
(define-fun .def_295 () Bool (and .def_68 .def_294))
(define-fun .def_296 () Bool (and .def_70 .def_295))
(define-fun .def_297 () Bool (and .def_72 .def_296))
(define-fun .def_298 () Bool (and .def_74 .def_297))
(define-fun .def_299 () Bool (and .def_76 .def_298))
(define-fun .def_300 () Bool (and .def_78 .def_299))
(define-fun .def_301 () Bool (and .def_80 .def_300))
(define-fun .def_302 () Bool (and .def_82 .def_301))
(define-fun .def_303 () Bool (and .def_166 .def_302))
(define-fun .def_304 () Bool (and .def_131 .def_303))
(define-fun .def_305 () Bool (and .def_84 .def_304))
(define-fun .def_306 () Bool (and .def_86 .def_305))
(define-fun .def_307 () Bool (and .def_90 .def_306))
(define-fun .def_308 () Bool (and .def_92 .def_307))
(define-fun .def_309 () Bool (and .def_94 .def_308))
(define-fun .def_310 () Bool (and .def_96 .def_309))
(define-fun .def_311 () Bool (and .def_98 .def_310))
(define-fun .def_312 () Bool (and .def_176 .def_311))
(define-fun .def_313 () Bool (and .def_221 .def_312))
(define-fun .def_317 () Bool (and .def_313 .def_316))
(define-fun .def_322 () Bool (and .def_317 .def_321))
(define-fun .def_325 () Bool (and .def_322 .def_324))
(define-fun .def_329 () Bool (and .def_325 .def_328))
(define-fun .def_700 () Bool (or .def_329 .def_699))
(define-fun .def_223 () Int (* (- 1) .def_28))
(define-fun .def_224 () Int (+ .def_12 .def_223))
(define-fun .def_225 () Bool (<= .def_224 1))
(define-fun .def_290 () Bool (not .def_225))
(define-fun .def_286 () Int (* (- 1) .x.21))
(define-fun .def_287 () Int (+ .def_28 .def_286))
(define-fun .def_288 () Bool (= .def_287 (- 1)))
(define-fun .def_227 () Int (+ .def_16 .def_28))
(define-fun .def_236 () (Array Int Int) (store .def_30 .def_227 47))
(define-fun .def_284 () Bool (= .x.22 .def_236))
(define-fun .def_267 () Bool (and .def_68 .def_191))
(define-fun .def_268 () Bool (and .def_70 .def_267))
(define-fun .def_269 () Bool (and .def_72 .def_268))
(define-fun .def_270 () Bool (and .def_74 .def_269))
(define-fun .def_271 () Bool (and .def_76 .def_270))
(define-fun .def_272 () Bool (and .def_78 .def_271))
(define-fun .def_273 () Bool (and .def_80 .def_272))
(define-fun .def_274 () Bool (and .def_82 .def_273))
(define-fun .def_275 () Bool (and .def_84 .def_274))
(define-fun .def_276 () Bool (and .def_86 .def_275))
(define-fun .def_277 () Bool (and .def_90 .def_276))
(define-fun .def_278 () Bool (and .def_92 .def_277))
(define-fun .def_279 () Bool (and .def_94 .def_278))
(define-fun .def_280 () Bool (and .def_96 .def_279))
(define-fun .def_281 () Bool (and .def_98 .def_280))
(define-fun .def_283 () Bool (and .def_281 .def_282))
(define-fun .def_285 () Bool (and .def_283 .def_284))
(define-fun .def_289 () Bool (and .def_285 .def_288))
(define-fun .def_291 () Bool (and .def_289 .def_290))
(define-fun .def_228 () Bool (<= .def_227 0))
(define-fun .def_229 () Bool (not .def_228))
(define-fun .def_230 () Bool (or .def_89 .def_229))
(define-fun .def_292 () Bool (and .def_230 .def_291))
(define-fun .def_233 () Bool (= .def_8 6))
(define-fun .def_293 () Bool (and .def_233 .def_292))
(define-fun .def_701 () Bool (or .def_293 .def_700))
(define-fun .def_62 () Bool (= .def_24 .x.20))
(define-fun .def_60 () Bool (= .def_22 .x.19))
(define-fun .def_155 () Bool (and .def_60 .def_62))
(define-fun .def_702 () Bool (and .def_155 .def_701))
(define-fun .def_264 () Bool (= .x.19 0))
(define-fun .def_262 () Bool (= .x.20 .def_236))
(define-fun .def_242 () Bool (and .def_64 .def_241))
(define-fun .def_243 () Bool (and .def_66 .def_242))
(define-fun .def_244 () Bool (and .def_68 .def_243))
(define-fun .def_245 () Bool (and .def_70 .def_244))
(define-fun .def_246 () Bool (and .def_72 .def_245))
(define-fun .def_247 () Bool (and .def_74 .def_246))
(define-fun .def_248 () Bool (and .def_76 .def_247))
(define-fun .def_249 () Bool (and .def_78 .def_248))
(define-fun .def_250 () Bool (and .def_80 .def_249))
(define-fun .def_251 () Bool (and .def_82 .def_250))
(define-fun .def_252 () Bool (and .def_84 .def_251))
(define-fun .def_253 () Bool (and .def_86 .def_252))
(define-fun .def_254 () Bool (and .def_90 .def_253))
(define-fun .def_255 () Bool (and .def_92 .def_254))
(define-fun .def_256 () Bool (and .def_94 .def_255))
(define-fun .def_257 () Bool (and .def_96 .def_256))
(define-fun .def_258 () Bool (and .def_98 .def_257))
(define-fun .def_259 () Bool (and .def_225 .def_258))
(define-fun .def_260 () Bool (and .def_230 .def_259))
(define-fun .def_261 () Bool (and .def_233 .def_260))
(define-fun .def_263 () Bool (and .def_261 .def_262))
(define-fun .def_265 () Bool (and .def_263 .def_264))
(define-fun .def_209 () Bool (= .x.15 7))
(define-fun .def_266 () Bool (and .def_209 .def_265))
(define-fun .def_703 () Bool (or .def_266 .def_702))
(define-fun .def_237 () Bool (= .x.18 .def_236))
(define-fun .def_156 () Bool (and .def_64 .def_155))
(define-fun .def_157 () Bool (and .def_66 .def_156))
(define-fun .def_158 () Bool (and .def_68 .def_157))
(define-fun .def_159 () Bool (and .def_70 .def_158))
(define-fun .def_160 () Bool (and .def_72 .def_159))
(define-fun .def_161 () Bool (and .def_74 .def_160))
(define-fun .def_162 () Bool (and .def_76 .def_161))
(define-fun .def_163 () Bool (and .def_78 .def_162))
(define-fun .def_164 () Bool (and .def_80 .def_163))
(define-fun .def_165 () Bool (and .def_82 .def_164))
(define-fun .def_167 () Bool (and .def_165 .def_166))
(define-fun .def_168 () Bool (and .def_131 .def_167))
(define-fun .def_169 () Bool (and .def_84 .def_168))
(define-fun .def_170 () Bool (and .def_86 .def_169))
(define-fun .def_171 () Bool (and .def_90 .def_170))
(define-fun .def_172 () Bool (and .def_92 .def_171))
(define-fun .def_173 () Bool (and .def_94 .def_172))
(define-fun .def_174 () Bool (and .def_96 .def_173))
(define-fun .def_175 () Bool (and .def_98 .def_174))
(define-fun .def_177 () Bool (and .def_175 .def_176))
(define-fun .def_222 () Bool (and .def_177 .def_221))
(define-fun .def_226 () Bool (and .def_222 .def_225))
(define-fun .def_231 () Bool (and .def_226 .def_230))
(define-fun .def_234 () Bool (and .def_231 .def_233))
(define-fun .def_238 () Bool (and .def_234 .def_237))
(define-fun .def_704 () Bool (or .def_238 .def_703))
(define-fun .def_152 () Int (* (- 1) .def_22))
(define-fun .def_153 () Int (+ .def_12 .def_152))
(define-fun .def_154 () Bool (<= .def_153 1))
(define-fun .def_217 () Bool (not .def_154))
(define-fun .def_213 () Int (* (- 1) .x.19))
(define-fun .def_214 () Int (+ .def_22 .def_213))
(define-fun .def_215 () Bool (= .def_214 (- 1)))
(define-fun .def_179 () Int (+ .def_16 .def_22))
(define-fun .def_187 () (Array Int Int) (store .def_24 .def_179 48))
(define-fun .def_211 () Bool (= .x.20 .def_187))
(define-fun .def_192 () Bool (and .def_64 .def_191))
(define-fun .def_193 () Bool (and .def_66 .def_192))
(define-fun .def_194 () Bool (and .def_68 .def_193))
(define-fun .def_195 () Bool (and .def_70 .def_194))
(define-fun .def_196 () Bool (and .def_72 .def_195))
(define-fun .def_197 () Bool (and .def_74 .def_196))
(define-fun .def_198 () Bool (and .def_76 .def_197))
(define-fun .def_199 () Bool (and .def_78 .def_198))
(define-fun .def_200 () Bool (and .def_80 .def_199))
(define-fun .def_201 () Bool (and .def_82 .def_200))
(define-fun .def_202 () Bool (and .def_84 .def_201))
(define-fun .def_203 () Bool (and .def_86 .def_202))
(define-fun .def_204 () Bool (and .def_90 .def_203))
(define-fun .def_205 () Bool (and .def_92 .def_204))
(define-fun .def_206 () Bool (and .def_94 .def_205))
(define-fun .def_207 () Bool (and .def_96 .def_206))
(define-fun .def_208 () Bool (and .def_98 .def_207))
(define-fun .def_210 () Bool (and .def_208 .def_209))
(define-fun .def_212 () Bool (and .def_210 .def_211))
(define-fun .def_216 () Bool (and .def_212 .def_215))
(define-fun .def_218 () Bool (and .def_216 .def_217))
(define-fun .def_180 () Bool (<= .def_179 0))
(define-fun .def_181 () Bool (not .def_180))
(define-fun .def_182 () Bool (or .def_89 .def_181))
(define-fun .def_219 () Bool (and .def_182 .def_218))
(define-fun .def_185 () Bool (= .def_8 7))
(define-fun .def_220 () Bool (and .def_185 .def_219))
(define-fun .def_705 () Bool (or .def_220 .def_704))
(define-fun .def_188 () Bool (= .x.18 .def_187))
(define-fun .def_178 () Bool (and .def_154 .def_177))
(define-fun .def_183 () Bool (and .def_178 .def_182))
(define-fun .def_186 () Bool (and .def_183 .def_185))
(define-fun .def_189 () Bool (and .def_186 .def_188))
(define-fun .def_706 () Bool (or .def_189 .def_705))
(define-fun .def_144 () Int (* (- 1) .x.16))
(define-fun .def_145 () Int (+ .def_10 .def_144))
(define-fun .def_146 () Bool (= .def_145 (- 1)))
(define-fun .def_100 () Bool (<= .def_12 .def_10))
(define-fun .def_101 () Bool (not .def_100))
(define-fun .def_140 () Bool (and .def_14 .def_101))
(define-fun .def_141 () Bool (= .x.17 .def_140))
(define-fun .def_119 () Bool (and .def_58 .def_60))
(define-fun .def_120 () Bool (and .def_62 .def_119))
(define-fun .def_121 () Bool (and .def_64 .def_120))
(define-fun .def_122 () Bool (and .def_66 .def_121))
(define-fun .def_123 () Bool (and .def_68 .def_122))
(define-fun .def_124 () Bool (and .def_70 .def_123))
(define-fun .def_125 () Bool (and .def_72 .def_124))
(define-fun .def_126 () Bool (and .def_74 .def_125))
(define-fun .def_127 () Bool (and .def_76 .def_126))
(define-fun .def_128 () Bool (and .def_78 .def_127))
(define-fun .def_129 () Bool (and .def_80 .def_128))
(define-fun .def_130 () Bool (and .def_82 .def_129))
(define-fun .def_132 () Bool (and .def_130 .def_131))
(define-fun .def_133 () Bool (and .def_84 .def_132))
(define-fun .def_134 () Bool (and .def_86 .def_133))
(define-fun .def_135 () Bool (and .def_90 .def_134))
(define-fun .def_136 () Bool (and .def_92 .def_135))
(define-fun .def_137 () Bool (and .def_94 .def_136))
(define-fun .def_138 () Bool (and .def_96 .def_137))
(define-fun .def_139 () Bool (and .def_98 .def_138))
(define-fun .def_142 () Bool (and .def_139 .def_141))
(define-fun .def_147 () Bool (and .def_142 .def_146))
(define-fun .def_103 () Int (+ .def_10 .def_16))
(define-fun .def_112 () Int (select .def_18 .def_103))
(define-fun .def_113 () Bool (= .def_112 48))
(define-fun .def_148 () Bool (and .def_113 .def_147))
(define-fun .def_104 () Bool (<= .def_103 0))
(define-fun .def_105 () Bool (not .def_104))
(define-fun .def_106 () Bool (or .def_89 .def_105))
(define-fun .def_149 () Bool (and .def_106 .def_148))
(define-fun .def_109 () Bool (= .def_8 8))
(define-fun .def_150 () Bool (and .def_109 .def_149))
(define-fun .def_707 () Bool (or .def_150 .def_706))
(define-fun .def_117 () Bool (= .x.15 9))
(define-fun .def_114 () Bool (not .def_113))
(define-fun .def_55 () Bool (and .def_14 .def_54))
(define-fun .def_57 () Bool (and .def_55 .def_56))
(define-fun .def_59 () Bool (and .def_57 .def_58))
(define-fun .def_61 () Bool (and .def_59 .def_60))
(define-fun .def_63 () Bool (and .def_61 .def_62))
(define-fun .def_65 () Bool (and .def_63 .def_64))
(define-fun .def_67 () Bool (and .def_65 .def_66))
(define-fun .def_69 () Bool (and .def_67 .def_68))
(define-fun .def_71 () Bool (and .def_69 .def_70))
(define-fun .def_73 () Bool (and .def_71 .def_72))
(define-fun .def_75 () Bool (and .def_73 .def_74))
(define-fun .def_77 () Bool (and .def_75 .def_76))
(define-fun .def_79 () Bool (and .def_77 .def_78))
(define-fun .def_81 () Bool (and .def_79 .def_80))
(define-fun .def_83 () Bool (and .def_81 .def_82))
(define-fun .def_85 () Bool (and .def_83 .def_84))
(define-fun .def_87 () Bool (and .def_85 .def_86))
(define-fun .def_91 () Bool (and .def_87 .def_90))
(define-fun .def_93 () Bool (and .def_91 .def_92))
(define-fun .def_95 () Bool (and .def_93 .def_94))
(define-fun .def_97 () Bool (and .def_95 .def_96))
(define-fun .def_99 () Bool (and .def_97 .def_98))
(define-fun .def_102 () Bool (and .def_99 .def_101))
(define-fun .def_107 () Bool (and .def_102 .def_106))
(define-fun .def_110 () Bool (and .def_107 .def_109))
(define-fun .def_115 () Bool (and .def_110 .def_114))
(define-fun .def_118 () Bool (and .def_115 .def_117))
(define-fun .def_708 () Bool (or .def_118 .def_707))
(define-fun .def_710 () Bool (! (and .def_708 .def_709) :trans true))
(define-fun .def_711 () Bool (= .def_8 9))
(define-fun .def_712 () Bool (! (not .def_711) :invar-property 0))
(assert true)
